\ Model glass4
\ LP format - for model browsing. Use MPS format to capture full model detail.
Minimize
  2 x1 + 2 x2 + 2 x3 + 2 x4 + 2 x5 + 2 x6 + 2 x7 + 2 x8 + 2 x9 + 1e+06 lung
   + y1 + y2 + y3 + y4 + y5 + y6 + y7 + y8 + y9 + 0 id20
Subject To
 id21: - x1 + lung >= 700
 id22: - x2 + lung >= 500
 id23: - x3 + lung >= 200
 id24: - x4 + lung >= 200
 id25: - x5 + lung >= 500
 id26: - x6 + lung >= 300
 id27: - x7 + lung >= 100
 id28: - x8 + lung >= 500
 id29: - x9 + lung >= 300
 id31: 200 y1 - 200 y2 - 8.4e+06 z1&2.0 >= -8.36e+06
 id32: 300 x1 - 300 x2 - 8.4e+06 z1&2.0 >= -8.31e+06
 id34: 700 y1 - 700 y2 - 8.4e+06 z1&2.1 >= -8.05e+06
 id36: - 300 x1 + 300 x2 + 300 y1 - 300 y2 - 8.4e+06 z1&2.2 >= -8.13e+06
 id38: - 600 x1 + 600 x2 - 8.4e+06 z1&2.3 >= -7.98e+06
 id40: - 300 y1 + 300 y2 - 8.4e+06 z1&2.4 >= -8.28e+06
 id41: - 100 x1 + 100 x2 - 100 y1 + 100 y2 - 8.4e+06 z1&2.4 >= -8.32e+06
 id43: - 500 y1 + 500 y2 - 8.4e+06 z1&2.5 >= -8.15e+06
 id45: 100 x1 - 100 x2 - 50 y1 + 50 y2 - 8.4e+06 z1&2.6 >= -8.355e+06
 id46: - 250 y1 + 250 y2 - 8.4e+06 z1&2.6 >= -8.3e+06
 id48: 600 x1 - 600 x2 - 8.4e+06 z1&2.7 >= -8.1e+06
 id49: z1&2.0 + z1&2.1 + z1&2.2 + z1&2.3 + z1&2.4 + z1&2.5 + z1&2.6
   + z1&2.7 = 1
 id51: 700 y1 - 700 y3 - 8.4e+06 z1&3.0 >= -7.91e+06
 id53: - 200 x1 + 200 x3 + 400 y1 - 400 y3 - 8.4e+06 z1&3.1 >= -8.02e+06
 id55: - 400 x1 + 400 x3 - 8.4e+06 z1&3.2 >= -8.04e+06
 id57: - 200 x1 + 200 x3 - 200 y1 + 200 y3 - 8.4e+06 z1&3.3 >= -8.24e+06
 id58: - 300 x1 + 300 x3 - 8.4e+06 z1&3.3 >= -8.19e+06
 id60: - 200 y1 + 200 y3 - 8.4e+06 z1&3.4 >= -8.32e+06
 id62: 33.3340148925781 x1 - 33.3340148925781 x3 - 66.6659851074219 y1
   + 66.6659851074219 y3 - 8.4e+06 z1&3.5 >= -8.39000061328125e+06
 id63: - 133.334014892578 x1 + 133.334014892578 x3 - 133.334014892578 y1
   + 133.334014892578 y3 - 8.4e+06 z1&3.5 >= -8.2933327890625e+06
 id65: - 200 y1 + 200 y3 - 8.4e+06 z1&3.6 >= -8.3e+06
 id67: 120 x1 - 120 x3 - 60 y1 + 60 y3 - 8.4e+06 z1&3.7 >= -8.382e+06
 id68: - 20 x1 + 20 x3 - 40 y1 + 40 y3 - 8.4e+06 z1&3.7 >= -8.384e+06
 id70: - 200 y1 + 200 y3 - 8.4e+06 z1&3.8 >= -8.32e+06
 id72: 1100 x1 - 1100 x3 - 8.4e+06 z1&3.9 >= -8.18e+06
 id73: z1&3.0 + z1&3.1 + z1&3.2 + z1&3.3 + z1&3.4 + z1&3.5 + z1&3.6
   + z1&3.7 + z1&3.8 + z1&3.9 = 1
 id75: 1000 y1 - 1000 y4 - 8.4e+06 z1&4.0 >= -8e+06
 id77: - 200 x1 + 200 x4 + 100 y1 - 100 y4 - 8.4e+06 z1&4.1 >= -8.2e+06
 id79: - 400 x1 + 400 x4 - 8.4e+06 z1&4.2 >= -8.04e+06
 id81: - 200 x1 + 200 x4 - 200 y1 + 200 y4 - 8.4e+06 z1&4.3 >= -8.18e+06
 id83: 100 x1 - 100 x4 - 200 y1 + 200 y4 - 8.4e+06 z1&4.4 >= -8.39e+06
 id84: - 200 x1 + 200 x4 - 200 y1 + 200 y4 - 8.4e+06 z1&4.4 >= -8.24e+06
 id86: 100 x1 - 100 x4 - 200 y1 + 200 y4 - 8.4e+06 z1&4.5 >= -8.33e+06
 id88: 40 x1 - 40 x4 - 20 y1 + 20 y4 - 8.4e+06 z1&4.6 >= -8.396e+06
 id89: - 40 x1 + 40 x4 - 80 y1 + 80 y4 - 8.4e+06 z1&4.6 >= -8.368e+06
 id91: 100 x1 - 100 x4 - 200 y1 + 200 y4 - 8.4e+06 z1&4.7 >= -8.32e+06
 id93: 700 x1 - 700 x4 - 8.4e+06 z1&4.8 >= -8.26e+06
 id94: z1&4.0 + z1&4.1 + z1&4.2 + z1&4.3 + z1&4.4 + z1&4.5 + z1&4.6
   + z1&4.7 + z1&4.8 = 1
 id96: 1100 y1 - 1100 y5 - 8.4e+06 z1&5.0 >= -7.96e+06
 id98: - 200 x1 + 200 x5 + 200 y1 - 200 y5 - 8.4e+06 z1&5.1 >= -8.2e+06
 id100: - 400 x1 + 400 x5 - 8.4e+06 z1&5.2 >= -8.08e+06
 id102: - 200 x1 + 200 x5 - 100 y1 + 100 y5 - 8.4e+06 z1&5.3 >= -8.22e+06
 id104: 100 x1 - 100 x5 - 200 y1 + 200 y5 - 8.4e+06 z1&5.4 >= -8.39e+06
 id105: - 200 x1 + 200 x5 - 200 y1 + 200 y5 - 8.4e+06 z1&5.4 >= -8.24e+06
 id107: 125 x1 - 125 x5 - 250 y1 + 250 y5 - 8.4e+06 z1&5.5 >= -8.3125e+06
 id108: - 25 x1 + 25 x5 - 50 y1 + 50 y5 - 8.4e+06 z1&5.5 >= -8.38e+06
 id110: 200 x1 - 200 x5 - 400 y1 + 400 y5 - 8.4e+06 z1&5.6 >= -8.24e+06
 id112: 200 x1 - 200 x5 - 100 y1 + 100 y5 - 8.4e+06 z1&5.7 >= -8.3e+06
 id114: 400 x1 - 400 x5 - 8.4e+06 z1&5.8 >= -8.2e+06
 id115: z1&5.0 + z1&5.1 + z1&5.2 + z1&5.3 + z1&5.4 + z1&5.5 + z1&5.6
   + z1&5.7 + z1&5.8 = 1
 id117: 1200 y1 - 1200 y6 - 8.4e+06 z1&6.0 >= -7.68e+06
 id119: - 800 x1 + 800 x6 - 8.4e+06 z1&6.1 >= -7.68e+06
 id121: - 200 x1 + 200 x6 - 200 y1 + 200 y6 - 8.4e+06 z1&6.2 >= -8.18e+06
 id123: 100 x1 - 100 x6 - 200 y1 + 200 y6 - 8.4e+06 z1&6.3 >= -8.39e+06
 id124: - 200 x1 + 200 x6 - 200 y1 + 200 y6 - 8.4e+06 z1&6.3 >= -8.24e+06
 id126: 166.665985107422 x1 - 166.665985107422 x6 - 166.666000366211 y1
   + 166.666000366211 y6 - 8.4e+06 z1&6.4 >= -8.3666667949218797e+06
 id127: - 66.6659851074219 x1 + 66.6659851074219 x6 - 133.333999633789 y1
   + 133.333999633789 y6 - 8.4e+06 z1&6.4 >= -8.3466664003906203e+06
 id129: 200 x1 - 200 x6 - 200 y1 + 200 y6 - 8.4e+06 z1&6.5 >= -8.32e+06
 id131: 300 x1 - 300 x6 - 8.4e+06 z1&6.6 >= -8.34e+06
 id132: 100 x1 - 100 x6 - 100 y1 + 100 y6 - 8.4e+06 z1&6.6 >= -8.39e+06
 id134: 400 x1 - 400 x6 - 8.4e+06 z1&6.7 >= -8.28e+06
 id135: z1&6.0 + z1&6.1 + z1&6.2 + z1&6.3 + z1&6.4 + z1&6.5 + z1&6.6
   + z1&6.7 = 1
 id137: 300 x1 - 300 x7 + 300 y1 - 300 y7 - 8.4e+06 z1&7.0 >= -8.31e+06
 id139: 700 y1 - 700 y7 - 8.4e+06 z1&7.1 >= -8.05e+06
 id141: - 800 x1 + 800 x7 - 8.4e+06 z1&7.2 >= -7.68e+06
 id143: - 100 x1 + 100 x7 - 200 y1 + 200 y7 - 8.4e+06 z1&7.3 >= -8.25e+06
 id145: 66.6659851074219 x1 - 66.6659851074219 x7 - 133.333984375 y1
   + 133.333984375 y7 - 8.4e+06 z1&7.4 >= -8.3933325957031194e+06
 id146: - 66.6659851074219 x1 + 66.6659851074219 x7 - 66.666015625 y1
   + 66.666015625 y7 - 8.4e+06 z1&7.4 >= -8.3400006015625e+06
 id148: - 100 x1 + 100 x7 - 200 y1 + 200 y7 - 8.4e+06 z1&7.5 >= -8.27e+06
 id150: 200 x1 - 200 x7 - 100 y1 + 100 y7 - 8.4e+06 z1&7.6 >= -8.41e+06
 id151: - 100 x1 + 100 x7 - 200 y1 + 200 y7 - 8.4e+06 z1&7.6 >= -8.32e+06
 id153: 200 x1 - 200 x7 - 100 y1 + 100 y7 - 8.4e+06 z1&7.7 >= -8.36e+06
 id155: 400 x1 - 400 x7 - 8.4e+06 z1&7.8 >= -8.36e+06
 id156: z1&7.0 + z1&7.1 + z1&7.2 + z1&7.3 + z1&7.4 + z1&7.5 + z1&7.6
   + z1&7.7 + z1&7.8 = 1
 id158: 200 x1 - 200 x8 + 200 y1 - 200 y8 - 8.4e+06 z1&8.0 >= -8.2e+06
 id160: 700 y1 - 700 y8 - 8.4e+06 z1&8.1 >= -7.91e+06
 id162: - 200 x1 + 200 x8 + 400 y1 - 400 y8 - 8.4e+06 z1&8.2 >= -8.04e+06
 id164: - 200 x1 + 200 x8 + 200 y1 - 200 y8 - 8.4e+06 z1&8.3 >= -8.14e+06
 id166: - 400 x1 + 400 x8 - 8.4e+06 z1&8.4 >= -8e+06
 id168: - 300 x1 + 300 x8 - 300 y1 + 300 y8 - 8.4e+06 z1&8.5 >= -8.07e+06
 id170: 100 x1 - 100 x8 - 200 y1 + 200 y8 - 8.4e+06 z1&8.6 >= -8.39e+06
 id171: - 200 x1 + 200 x8 - 200 y1 + 200 y8 - 8.4e+06 z1&8.6 >= -8.24e+06
 id173: 100 x1 - 100 x8 - 200 y1 + 200 y8 - 8.4e+06 z1&8.7 >= -8.33e+06
 id175: 40 x1 - 40 x8 - 20 y1 + 20 y8 - 8.4e+06 z1&8.8 >= -8.396e+06
 id176: - 40 x1 + 40 x8 - 80 y1 + 80 y8 - 8.4e+06 z1&8.8 >= -8.368e+06
 id178: 100 x1 - 100 x8 - 200 y1 + 200 y8 - 8.4e+06 z1&8.9 >= -8.32e+06
 id180: 300 x1 - 300 x8 - 8.4e+06 z1&8.10 >= -8.34e+06
 id181: 40 x1 - 40 x8 - 20 y1 + 20 y8 - 8.4e+06 z1&8.10 >= -8.392e+06
 id182: - 40 x1 + 40 x8 - 80 y1 + 80 y8 - 8.4e+06 z1&8.10 >= -8.412e+06
 id184: 100 x1 - 100 x8 - 200 y1 + 200 y8 - 8.4e+06 z1&8.11 >= -8.37e+06
 id186: 400 x1 - 400 x8 - 8.4e+06 z1&8.12 >= -8.2e+06
 id187: z1&8.0 + z1&8.1 + z1&8.2 + z1&8.3 + z1&8.4 + z1&8.5 + z1&8.6
   + z1&8.7 + z1&8.8 + z1&8.9 + z1&8.10 + z1&8.11 + z1&8.12 = 1
 id189: 300 x1 - 300 x9 + 300 y1 - 300 y9 - 8.4e+06 z1&9.0 >= -8.22e+06
 id191: 700 y1 - 700 y9 - 8.4e+06 z1&9.1 >= -7.98e+06
 id193: - 1000 x1 + 1000 x9 - 8.4e+06 z1&9.2 >= -7.7e+06
 id195: 100 x1 - 100 x9 - 200 y1 + 200 y9 - 8.4e+06 z1&9.3 >= -8.39e+06
 id196: - 200 x1 + 200 x9 - 200 y1 + 200 y9 - 8.4e+06 z1&9.3 >= -8.24e+06
 id198: 166.665985107422 x1 - 166.665985107422 x9 - 166.666000366211 y1
   + 166.666000366211 y9 - 8.4e+06 z1&9.4 >= -8.3666667949218797e+06
 id199: - 66.6659851074219 x1 + 66.6659851074219 x9 - 133.333999633789 y1
   + 133.333999633789 y9 - 8.4e+06 z1&9.4 >= -8.3466664003906203e+06
 id201: 300 x1 - 300 x9 - 300 y1 + 300 y9 - 8.4e+06 z1&9.5 >= -8.28e+06
 id203: 400 x1 - 400 x9 - 8.4e+06 z1&9.6 >= -8.28e+06
 id204: z1&9.0 + z1&9.1 + z1&9.2 + z1&9.3 + z1&9.4 + z1&9.5 + z1&9.6 = 1
 id206: 500 y2 - 500 y3 - 8.4e+06 z2&3.0 >= -8.05e+06
 id208: - 200 x2 + 200 x3 + 400 y2 - 400 y3 - 8.4e+06 z2&3.1 >= -8.06e+06
 id210: - 200 x2 + 200 x3 - 8.4e+06 z2&3.2 >= -8.26e+06
 id212: - 200 x2 + 200 x3 - 200 y2 + 200 y3 - 8.4e+06 z2&3.3 >= -8.32e+06
 id213: - 300 x2 + 300 x3 - 8.4e+06 z2&3.3 >= -8.25e+06
 id215: - 200 y2 + 200 y3 - 8.4e+06 z2&3.4 >= -8.36e+06
 id216: - 300 x2 + 300 x3 - 8.4e+06 z2&3.4 >= -8.31e+06
 id218: - 200 y2 + 200 y3 - 8.4e+06 z2&3.5 >= -8.3e+06
 id220: 300 x2 - 300 x3 - 300 y2 + 300 y3 - 8.4e+06 z2&3.6 >= -8.28e+06
 id222: 900 x2 - 900 x3 - 8.4e+06 z2&3.7 >= -8.22e+06
 id223: z2&3.0 + z2&3.1 + z2&3.2 + z2&3.3 + z2&3.4 + z2&3.5 + z2&3.6
   + z2&3.7 = 1
 id225: 800 y2 - 800 y4 - 8.4e+06 z2&4.0 >= -8.08e+06
 id227: - 200 x2 + 200 x4 + 100 y2 - 100 y4 - 8.4e+06 z2&4.1 >= -8.24e+06
 id229: - 200 x2 + 200 x4 - 8.4e+06 z2&4.2 >= -8.26e+06
 id231: - 200 x2 + 200 x4 - 200 y2 + 200 y4 - 8.4e+06 z2&4.3 >= -8.26e+06
 id232: - 100 x2 + 100 x4 - 8.4e+06 z2&4.3 >= -8.35e+06
 id234: - 200 x2 + 200 x4 - 200 y2 + 200 y4 - 8.4e+06 z2&4.4 >= -8.24e+06
 id236: 100 x2 - 100 x4 - 200 y2 + 200 y4 - 8.4e+06 z2&4.5 >= -8.33e+06
 id238: 300 x2 - 300 x4 - 300 y2 + 300 y4 - 8.4e+06 z2&4.6 >= -8.31e+06
 id240: 500 x2 - 500 x4 - 8.4e+06 z2&4.7 >= -8.3e+06
 id241: z2&4.0 + z2&4.1 + z2&4.2 + z2&4.3 + z2&4.4 + z2&4.5 + z2&4.6
   + z2&4.7 = 1
 id243: 900 y2 - 900 y5 - 8.4e+06 z2&5.0 >= -8.04e+06
 id245: - 200 x2 + 200 x5 + 200 y2 - 200 y5 - 8.4e+06 z2&5.1 >= -8.24e+06
 id247: - 200 x2 + 200 x5 - 8.4e+06 z2&5.2 >= -8.28e+06
 id249: - 200 x2 + 200 x5 - 100 y2 + 100 y5 - 8.4e+06 z2&5.3 >= -8.28e+06
 id251: - 100 y2 + 100 y5 - 8.4e+06 z2&5.4 >= -8.38e+06
 id252: - 100 x2 + 100 x5 - 8.4e+06 z2&5.4 >= -8.36e+06
 id254: - 200 x2 + 200 x5 - 100 y2 + 100 y5 - 8.4e+06 z2&5.5 >= -8.29e+06
 id256: 200 x2 - 200 x5 - 400 y2 + 400 y5 - 8.4e+06 z2&5.6 >= -8.26e+06
 id258: 300 x2 - 300 x5 - 300 y2 + 300 y5 - 8.4e+06 z2&5.7 >= -8.28e+06
 id260: 200 x2 - 200 x5 - 100 y2 + 100 y5 - 8.4e+06 z2&5.8 >= -8.32e+06
 id262: 200 x2 - 200 x5 - 8.4e+06 z2&5.9 >= -8.3e+06
 id263: z2&5.0 + z2&5.1 + z2&5.2 + z2&5.3 + z2&5.4 + z2&5.5 + z2&5.6
   + z2&5.7 + z2&5.8 + z2&5.9 = 1
 id265: 1000 y2 - 1000 y6 - 8.4e+06 z2&6.0 >= -7.8e+06
 id267: - 600 x2 + 600 x6 - 8.4e+06 z2&6.1 >= -7.98e+06
 id269: - 200 x2 + 200 x6 - 200 y2 + 200 y6 - 8.4e+06 z2&6.2 >= -8.26e+06
 id270: - 100 x2 + 100 x6 - 8.4e+06 z2&6.2 >= -8.35e+06
 id272: - 200 x2 + 200 x6 - 200 y2 + 200 y6 - 8.4e+06 z2&6.3 >= -8.24e+06
 id274: 500 x2 - 500 x6 - 500 y2 + 500 y6 - 8.4e+06 z2&6.4 >= -8.3e+06
 id276: 200 x2 - 200 x6 - 8.4e+06 z2&6.5 >= -8.36e+06
 id278: 66.6659851074219 x2 - 66.6659851074219 x6 + 33.3339996337891 y2
   - 33.3339996337891 y6 - 8.4e+06 z2&6.6 >= -8.38000000390625e+06
 id279: 133.334014892578 x2 - 133.334014892578 x6 - 133.333999633789 y2
   + 133.333999633789 y6 - 8.4e+06 z2&6.6 >= -8.41333339453125e+06
 id281: 200 x2 - 200 x6 - 8.4e+06 z2&6.7 >= -8.34e+06
 id282: z2&6.0 + z2&6.1 + z2&6.2 + z2&6.3 + z2&6.4 + z2&6.5 + z2&6.6
   + z2&6.7 = 1
 id284: 300 x2 - 300 x7 + 300 y2 - 300 y7 - 8.4e+06 z2&7.0 >= -8.31e+06
 id286: 500 y2 - 500 y7 - 8.4e+06 z2&7.1 >= -8.15e+06
 id288: - 600 x2 + 600 x7 - 8.4e+06 z2&7.2 >= -7.98e+06
 id290: - 100 x2 + 100 x7 - 200 y2 + 200 y7 - 8.4e+06 z2&7.3 >= -8.31e+06
 id291: - 200 x2 + 200 x7 - 8.4e+06 z2&7.3 >= -8.3e+06
 id293: - 100 x2 + 100 x7 - 200 y2 + 200 y7 - 8.4e+06 z2&7.4 >= -8.27e+06
 id295: 300 x2 - 300 x7 - 300 y2 + 300 y7 - 8.4e+06 z2&7.5 >= -8.34e+06
 id297: 200 x2 - 200 x7 - 100 y2 + 100 y7 - 8.4e+06 z2&7.6 >= -8.38e+06
 id299: 200 x2 - 200 x7 - 8.4e+06 z2&7.7 >= -8.38e+06
 id300: z2&7.0 + z2&7.1 + z2&7.2 + z2&7.3 + z2&7.4 + z2&7.5 + z2&7.6
   + z2&7.7 = 1
 id302: 200 x2 - 200 x8 + 200 y2 - 200 y8 - 8.4e+06 z2&8.0 >= -8.2e+06
 id304: 500 y2 - 500 y8 - 8.4e+06 z2&8.1 >= -8.05e+06
 id306: - 200 x2 + 200 x8 + 400 y2 - 400 y8 - 8.4e+06 z2&8.2 >= -8.08e+06
 id308: - 200 x2 + 200 x8 + 200 y2 - 200 y8 - 8.4e+06 z2&8.3 >= -8.18e+06
 id310: - 200 x2 + 200 x8 - 8.4e+06 z2&8.4 >= -8.24e+06
 id312: - 200 x2 + 200 x8 - 200 y2 + 200 y8 - 8.4e+06 z2&8.5 >= -8.26e+06
 id313: - 100 x2 + 100 x8 - 8.4e+06 z2&8.5 >= -8.34e+06
 id315: - 300 x2 + 300 x8 - 300 y2 + 300 y8 - 8.4e+06 z2&8.6 >= -8.16e+06
 id317: 100 x2 - 100 x8 - 200 y2 + 200 y8 - 8.4e+06 z2&8.7 >= -8.33e+06
 id319: 300 x2 - 300 x8 - 300 y2 + 300 y8 - 8.4e+06 z2&8.8 >= -8.31e+06
 id321: 100 x2 - 100 x8 - 8.4e+06 z2&8.9 >= -8.38e+06
 id322: 300 x2 - 300 x8 - 300 y2 + 300 y8 - 8.4e+06 z2&8.9 >= -8.34e+06
 id324: 200 x2 - 200 x8 - 8.4e+06 z2&8.10 >= -8.3e+06
 id325: z2&8.0 + z2&8.1 + z2&8.2 + z2&8.3 + z2&8.4 + z2&8.5 + z2&8.6
   + z2&8.7 + z2&8.8 + z2&8.9 + z2&8.10 = 1
 id327: 300 x2 - 300 x9 + 300 y2 - 300 y9 - 8.4e+06 z2&9.0 >= -8.22e+06
 id329: 500 y2 - 500 y9 - 8.4e+06 z2&9.1 >= -8.1e+06
 id331: - 800 x2 + 800 x9 - 8.4e+06 z2&9.2 >= -8e+06
 id333: - 200 y2 + 200 y9 - 8.4e+06 z2&9.3 >= -8.36e+06
 id334: - 300 x2 + 300 x9 - 8.4e+06 z2&9.3 >= -8.31e+06
 id336: 600 x2 - 600 x9 - 600 y2 + 600 y9 - 8.4e+06 z2&9.4 >= -8.28e+06
 id338: 200 x2 - 200 x9 - 8.4e+06 z2&9.5 >= -8.34e+06
 id339: z2&9.0 + z2&9.1 + z2&9.2 + z2&9.3 + z2&9.4 + z2&9.5 = 1
 id341: 200 x3 - 200 x4 + 200 y3 - 200 y4 - 8.4e+06 z3&4.0 >= -8.34e+06
 id342: 300 x3 - 300 x4 - 8.4e+06 z3&4.0 >= -8.34e+06
 id344: 500 y3 - 500 y4 - 8.4e+06 z3&4.1 >= -8.2e+06
 id346: - 200 x3 + 200 x4 + 100 y3 - 100 y4 - 8.4e+06 z3&4.2 >= -8.3e+06
 id348: - 700 x3 + 700 x4 - 8.4e+06 z3&4.3 >= -8.12e+06
 id350: - 200 x3 + 200 x4 - 200 y3 + 200 y4 - 8.4e+06 z3&4.4 >= -8.22e+06
 id352: 300 x3 - 300 x4 - 600 y3 + 600 y4 - 8.4e+06 z3&4.5 >= -8.04e+06
 id354: 300 x3 - 300 x4 - 8.4e+06 z3&4.6 >= -8.28e+06
 id355: z3&4.0 + z3&4.1 + z3&4.2 + z3&4.3 + z3&4.4 + z3&4.5 + z3&4.6 = 1
 id357: 200 x3 - 200 x5 + 200 y3 - 200 y5 - 8.4e+06 z3&5.0 >= -8.28e+06
 id358: 300 x3 - 300 x5 - 8.4e+06 z3&5.0 >= -8.25e+06
 id360: 600 y3 - 600 y5 - 8.4e+06 z3&5.1 >= -8.16e+06
 id362: - 200 x3 + 200 x5 + 200 y3 - 200 y5 - 8.4e+06 z3&5.2 >= -8.3e+06
 id364: - 700 x3 + 700 x5 - 8.4e+06 z3&5.3 >= -8.19e+06
 id366: - 200 x3 + 200 x5 - 100 y3 + 100 y5 - 8.4e+06 z3&5.4 >= -8.29e+06
 id368: 400 x3 - 400 x5 - 800 y3 + 800 y5 - 8.4e+06 z3&5.5 >= -7.92e+06
 id370: 200 x3 - 200 x5 - 100 y3 + 100 y5 - 8.4e+06 z3&5.6 >= -8.25e+06
 id371: z3&5.0 + z3&5.1 + z3&5.2 + z3&5.3 + z3&5.4 + z3&5.5 + z3&5.6 = 1
 id373: 200 x3 - 200 x6 + 200 y3 - 200 y6 - 8.4e+06 z3&6.0 >= -8.28e+06
 id374: 300 x3 - 300 x6 - 8.4e+06 z3&6.0 >= -8.31e+06
 id376: 700 y3 - 700 y6 - 8.4e+06 z3&6.1 >= -7.98e+06
 id378: - 1100 x3 + 1100 x6 - 8.4e+06 z3&6.2 >= -7.96e+06
 id380: - 200 x3 + 200 x6 - 200 y3 + 200 y6 - 8.4e+06 z3&6.3 >= -8.22e+06
 id382: 200 x3 - 200 x6 - 400 y3 + 400 y6 - 8.4e+06 z3&6.4 >= -8.16e+06
 id384: 200 x3 - 200 x6 - 200 y3 + 200 y6 - 8.4e+06 z3&6.5 >= -8.26e+06
 id386: 200 x3 - 200 x6 + 100 y3 - 100 y6 - 8.4e+06 z3&6.6 >= -8.35e+06
 id387: 200 x3 - 200 x6 - 200 y3 + 200 y6 - 8.4e+06 z3&6.6 >= -8.32e+06
 id388: z3&6.0 + z3&6.1 + z3&6.2 + z3&6.3 + z3&6.4 + z3&6.5 + z3&6.6 = 1
 id390: 200 x3 - 200 x7 + 200 y3 - 200 y7 - 8.4e+06 z3&7.0 >= -8.4e+06
 id391: 300 x3 - 300 x7 - 8.4e+06 z3&7.0 >= -8.37e+06
 id393: 300 x3 - 300 x7 + 300 y3 - 300 y7 - 8.4e+06 z3&7.1 >= -8.31e+06
 id395: 200 y3 - 200 y7 - 8.4e+06 z3&7.2 >= -8.3e+06
 id397: - 1100 x3 + 1100 x7 - 8.4e+06 z3&7.3 >= -7.96e+06
 id399: - 100 x3 + 100 x7 - 200 y3 + 200 y7 - 8.4e+06 z3&7.4 >= -8.24e+06
 id401: 200 x3 - 200 x7 - 400 y3 + 400 y7 - 8.4e+06 z3&7.5 >= -8.16e+06
 id403: 200 x3 - 200 x7 - 100 y3 + 100 y7 - 8.4e+06 z3&7.6 >= -8.31e+06
 id404: z3&7.0 + z3&7.1 + z3&7.2 + z3&7.3 + z3&7.4 + z3&7.5 + z3&7.6 = 1
 id406: 200 x3 - 200 x8 + 200 y3 - 200 y8 - 8.4e+06 z3&8.0 >= -8.26e+06
 id407: 300 x3 - 300 x8 - 8.4e+06 z3&8.0 >= -8.25e+06
 id409: 200 x3 - 200 x8 + 200 y3 - 200 y8 - 8.4e+06 z3&8.1 >= -8.2e+06
 id411: 200 y3 - 200 y8 - 8.4e+06 z3&8.2 >= -8.26e+06
 id413: - 200 x3 + 200 x8 + 400 y3 - 400 y8 - 8.4e+06 z3&8.3 >= -8.14e+06
 id415: - 200 x3 + 200 x8 + 200 y3 - 200 y8 - 8.4e+06 z3&8.4 >= -8.24e+06
 id417: - 700 x3 + 700 x8 - 8.4e+06 z3&8.5 >= -8.05e+06
 id419: - 300 x3 + 300 x8 - 300 y3 + 300 y8 - 8.4e+06 z3&8.6 >= -8.13e+06
 id421: 300 x3 - 300 x8 - 600 y3 + 600 y8 - 8.4e+06 z3&8.7 >= -8.04e+06
 id423: 250 x3 - 250 x8 - 8.4e+06 z3&8.8 >= -8.3e+06
 id424: 150 x3 - 150 x8 - 300 y3 + 300 y8 - 8.4e+06 z3&8.8 >= -8.295e+06
 id425: z3&8.0 + z3&8.1 + z3&8.2 + z3&8.3 + z3&8.4 + z3&8.5 + z3&8.6
   + z3&8.7 + z3&8.8 = 1
 id427: 200 x3 - 200 x9 + 200 y3 - 200 y9 - 8.4e+06 z3&9.0 >= -8.34e+06
 id428: 300 x3 - 300 x9 - 8.4e+06 z3&9.0 >= -8.31e+06
 id430: 300 x3 - 300 x9 + 300 y3 - 300 y9 - 8.4e+06 z3&9.1 >= -8.22e+06
 id432: 200 y3 - 200 y9 - 8.4e+06 z3&9.2 >= -8.28e+06
 id434: - 1300 x3 + 1300 x9 - 8.4e+06 z3&9.3 >= -8.14e+06
 id436: 200 x3 - 200 x9 - 400 y3 + 400 y9 - 8.4e+06 z3&9.4 >= -8.16e+06
 id438: 300 x3 - 300 x9 - 300 y3 + 300 y9 - 8.4e+06 z3&9.5 >= -8.19e+06
 id439: z3&9.0 + z3&9.1 + z3&9.2 + z3&9.3 + z3&9.4 + z3&9.5 = 1
 id441: 400 y4 - 400 y5 - 8.4e+06 z4&5.0 >= -8.24e+06
 id443: - 100 x4 + 100 x5 + 200 y4 - 200 y5 - 8.4e+06 z4&5.1 >= -8.33e+06
 id445: - 200 x4 + 200 x5 + 200 y4 - 200 y5 - 8.4e+06 z4&5.2 >= -8.32e+06
 id447: - 300 x4 + 300 x5 - 8.4e+06 z4&5.3 >= -8.31e+06
 id449: - 200 x4 + 200 x5 - 100 y4 + 100 y5 - 8.4e+06 z4&5.4 >= -8.32e+06
 id451: - 300 y4 + 300 y5 - 8.4e+06 z4&5.5 >= -8.28e+06
 id453: 200 x4 - 200 x5 - 400 y4 + 400 y5 - 8.4e+06 z4&5.6 >= -8.22e+06
 id455: 400 x4 - 400 x5 - 200 y4 + 200 y5 - 8.4e+06 z4&5.7 >= -8.16e+06
 id457: 200 x4 - 200 x5 + 200 y4 - 200 y5 - 8.4e+06 z4&5.8 >= -8.22e+06
 id458: z4&5.0 + z4&5.1 + z4&5.2 + z4&5.3 + z4&5.4 + z4&5.5 + z4&5.6
   + z4&5.7 + z4&5.8 = 1
 id460: 200 x4 - 200 x6 + 200 y4 - 200 y6 - 8.4e+06 z4&6.0 >= -8.22e+06
 id462: 500 y4 - 500 y6 - 8.4e+06 z4&6.1 >= -8.1e+06
 id464: - 100 x4 + 100 x6 + 200 y4 - 200 y6 - 8.4e+06 z4&6.2 >= -8.26e+06
 id466: - 700 x4 + 700 x6 - 8.4e+06 z4&6.3 >= -8.12e+06
 id468: - 200 x4 + 200 x6 - 200 y4 + 200 y6 - 8.4e+06 z4&6.4 >= -8.28e+06
 id470: - 300 y4 + 300 y6 - 8.4e+06 z4&6.5 >= -8.28e+06
 id472: 200 x4 - 200 x6 - 200 y4 + 200 y6 - 8.4e+06 z4&6.6 >= -8.3e+06
 id474: 200 x4 - 200 x6 - 100 y4 + 100 y6 - 8.4e+06 z4&6.7 >= -8.32e+06
 id476: 133.333999633789 x4 - 133.333999633789 x6 + 66.6659851074219 y4
   - 66.6659851074219 y6 - 8.4e+06 z4&6.8 >= -8.3466664003906203e+06
 id477: 66.66600036621089 x4 - 66.66600036621089 x6 - 66.6659851074219 y4
   + 66.6659851074219 y6 - 8.4e+06 z4&6.8 >= -8.386666796875e+06
 id479: 200 x4 - 200 x6 - 100 y4 + 100 y6 - 8.4e+06 z4&6.9 >= -8.34e+06
 id480: z4&6.0 + z4&6.1 + z4&6.2 + z4&6.3 + z4&6.4 + z4&6.5 + z4&6.6
   + z4&6.7 + z4&6.8 + z4&6.9 = 1
 id482: - 100 x4 + 100 x7 + 200 y4 - 200 y7 - 8.4e+06 z4&7.0 >= -8.28e+06
 id484: - 700 x4 + 700 x7 - 8.4e+06 z4&7.1 >= -8.12e+06
 id486: - 100 x4 + 100 x7 - 200 y4 + 200 y7 - 8.4e+06 z4&7.2 >= -8.3e+06
 id488: - 300 y4 + 300 y7 - 8.4e+06 z4&7.3 >= -8.28e+06
 id490: 400 x4 - 400 x7 - 200 y4 + 200 y7 - 8.4e+06 z4&7.4 >= -8.28e+06
 id492: 500 x4 - 500 x7 + 500 y4 - 500 y7 - 8.4e+06 z4&7.5 >= -8.25e+06
 id493: z4&7.0 + z4&7.1 + z4&7.2 + z4&7.3 + z4&7.4 + z4&7.5 = 1
 id495: 400 x4 - 400 x8 + 400 y4 - 400 y8 - 8.4e+06 z4&8.0 >= -8e+06
 id497: - 300 x4 + 300 x8 + 600 y4 - 600 y8 - 8.4e+06 z4&8.1 >= -8.07e+06
 id499: - 200 x4 + 200 x8 + 200 y4 - 200 y8 - 8.4e+06 z4&8.2 >= -8.26e+06
 id501: - 300 x4 + 300 x8 - 8.4e+06 z4&8.3 >= -8.25e+06
 id503: - 300 x4 + 300 x8 - 300 y4 + 300 y8 - 8.4e+06 z4&8.4 >= -8.22e+06
 id505: - 300 y4 + 300 y8 - 8.4e+06 z4&8.5 >= -8.28e+06
 id507: 100 x4 - 100 x8 - 200 y4 + 200 y8 - 8.4e+06 z4&8.6 >= -8.31e+06
 id509: 200 x4 - 200 x8 - 100 y4 + 100 y8 - 8.4e+06 z4&8.7 >= -8.31e+06
 id511: 100 x4 - 100 x8 - 8.4e+06 z4&8.8 >= -8.36e+06
 id512: 100 x4 - 100 x8 - 200 y4 + 200 y8 - 8.4e+06 z4&8.8 >= -8.36e+06
 id514: 200 x4 - 200 x8 - 100 y4 + 100 y8 - 8.4e+06 z4&8.9 >= -8.29e+06
 id515: z4&8.0 + z4&8.1 + z4&8.2 + z4&8.3 + z4&8.4 + z4&8.5 + z4&8.6
   + z4&8.7 + z4&8.8 + z4&8.9 = 1
 id517: - 100 x4 + 100 x9 + 200 y4 - 200 y9 - 8.4e+06 z4&9.0 >= -8.28e+06
 id519: - 900 x4 + 900 x9 - 8.4e+06 z4&9.1 >= -8.22e+06
 id521: - 300 y4 + 300 y9 - 8.4e+06 z4&9.2 >= -8.28e+06
 id523: 300 x4 - 300 x9 - 300 y4 + 300 y9 - 8.4e+06 z4&9.3 >= -8.25e+06
 id525: 200 x4 - 200 x9 - 100 y4 + 100 y9 - 8.4e+06 z4&9.4 >= -8.31e+06
 id527: 500 x4 - 500 x9 + 500 y4 - 500 y9 - 8.4e+06 z4&9.5 >= -8.1e+06
 id528: z4&9.0 + z4&9.1 + z4&9.2 + z4&9.3 + z4&9.4 + z4&9.5 = 1
 id530: 200 x5 - 200 x6 + 100 y5 - 100 y6 - 8.4e+06 z5&6.0 >= -8.28e+06
 id532: 500 y5 - 500 y6 - 8.4e+06 z5&6.1 >= -8.1e+06
 id534: - 200 x5 + 200 x6 + 400 y5 - 400 y6 - 8.4e+06 z5&6.2 >= -8.12e+06
 id536: - 200 x5 + 200 x6 + 100 y5 - 100 y6 - 8.4e+06 z5&6.3 >= -8.24e+06
 id538: - 400 x5 + 400 x6 - 8.4e+06 z5&6.4 >= -8.12e+06
 id540: - 200 x5 + 200 x6 - 200 y5 + 200 y6 - 8.4e+06 z5&6.5 >= -8.22e+06
 id542: - 400 y5 + 400 y6 - 8.4e+06 z5&6.6 >= -8.24e+06
 id544: 400 x5 - 400 x6 - 400 y5 + 400 y6 - 8.4e+06 z5&6.7 >= -8.28e+06
 id546: 200 x5 - 200 x6 + 100 y5 - 100 y6 - 8.4e+06 z5&6.8 >= -8.34e+06
 id547: 200 x5 - 200 x6 - 200 y5 + 200 y6 - 8.4e+06 z5&6.8 >= -8.4e+06
 id548: z5&6.0 + z5&6.1 + z5&6.2 + z5&6.3 + z5&6.4 + z5&6.5 + z5&6.6
   + z5&6.7 + z5&6.8 = 1
 id550: - 200 x5 + 200 x7 + 400 y5 - 400 y7 - 8.4e+06 z5&7.0 >= -8.16e+06
 id552: - 200 x5 + 200 x7 + 100 y5 - 100 y7 - 8.4e+06 z5&7.1 >= -8.25e+06
 id554: - 400 x5 + 400 x7 - 8.4e+06 z5&7.2 >= -8.12e+06
 id556: - 100 x5 + 100 x7 - 200 y5 + 200 y7 - 8.4e+06 z5&7.3 >= -8.27e+06
 id558: - 400 y5 + 400 y7 - 8.4e+06 z5&7.4 >= -8.24e+06
 id560: 200 x5 - 200 x7 - 200 y5 + 200 y7 - 8.4e+06 z5&7.5 >= -8.34e+06
 id562: 200 x5 - 200 x7 - 100 y5 + 100 y7 - 8.4e+06 z5&7.6 >= -8.36e+06
 id564: 200 x5 - 200 x7 + 100 y5 - 100 y7 - 8.4e+06 z5&7.7 >= -8.36e+06
 id566: 300 x5 - 300 x7 + 300 y5 - 300 y7 - 8.4e+06 z5&7.8 >= -8.31e+06
 id567: z5&7.0 + z5&7.1 + z5&7.2 + z5&7.3 + z5&7.4 + z5&7.5 + z5&7.6
   + z5&7.7 + z5&7.8 = 1
 id569: 200 x5 - 200 x8 + 100 y5 - 100 y8 - 8.4e+06 z5&8.0 >= -8.25e+06
 id571: 200 x5 - 200 x8 + 200 y5 - 200 y8 - 8.4e+06 z5&8.1 >= -8.2e+06
 id573: - 400 x5 + 400 x8 + 800 y5 - 800 y8 - 8.4e+06 z5&8.2 >= -7.96e+06
 id575: - 200 x5 + 200 x8 + 200 y5 - 200 y8 - 8.4e+06 z5&8.3 >= -8.24e+06
 id577: - 200 x5 + 200 x8 + 100 y5 - 100 y8 - 8.4e+06 z5&8.4 >= -8.25e+06
 id579: - 300 x5 + 300 x8 - 300 y5 + 300 y8 - 8.4e+06 z5&8.5 >= -8.13e+06
 id581: - 400 y5 + 400 y8 - 8.4e+06 z5&8.6 >= -8.24e+06
 id583: 100 x5 - 100 x8 - 200 y5 + 200 y8 - 8.4e+06 z5&8.7 >= -8.33e+06
 id585: 200 x5 - 200 x8 - 200 y5 + 200 y8 - 8.4e+06 z5&8.8 >= -8.32e+06
 id587: 150 x5 - 150 x8 - 8.4e+06 z5&8.9 >= -8.355e+06
 id588: 50 x5 - 50 x8 - 100 y5 + 100 y8 - 8.4e+06 z5&8.9 >= -8.39e+06
 id590: 200 x5 - 200 x8 - 200 y5 + 200 y8 - 8.4e+06 z5&8.10 >= -8.34e+06
 id591: z5&8.0 + z5&8.1 + z5&8.2 + z5&8.3 + z5&8.4 + z5&8.5 + z5&8.6
   + z5&8.7 + z5&8.8 + z5&8.9 + z5&8.10 = 1
 id593: - 200 x5 + 200 x9 + 400 y5 - 400 y9 - 8.4e+06 z5&9.0 >= -8.16e+06
 id595: - 200 x5 + 200 x9 + 100 y5 - 100 y9 - 8.4e+06 z5&9.1 >= -8.28e+06
 id597: - 600 x5 + 600 x9 - 8.4e+06 z5&9.2 >= -8.1e+06
 id599: - 400 y5 + 400 y9 - 8.4e+06 z5&9.3 >= -8.24e+06
 id601: 500 x5 - 500 x9 - 500 y5 + 500 y9 - 8.4e+06 z5&9.4 >= -8.25e+06
 id603: 200 x5 - 200 x9 + 100 y5 - 100 y9 - 8.4e+06 z5&9.5 >= -8.31e+06
 id605: 300 x5 - 300 x9 + 300 y5 - 300 y9 - 8.4e+06 z5&9.6 >= -8.22e+06
 id606: z5&9.0 + z5&9.1 + z5&9.2 + z5&9.3 + z5&9.4 + z5&9.5 + z5&9.6 = 1
 id608: 500 x6 - 500 x7 + 500 y6 - 500 y7 - 8.4e+06 z6&7.0 >= -8.25e+06
 id610: - 200 x6 + 200 x7 + 200 y6 - 200 y7 - 8.4e+06 z6&7.1 >= -8.26e+06
 id612: - 300 x6 + 300 x7 - 8.4e+06 z6&7.2 >= -8.28e+06
 id613: - 100 x6 + 100 x7 + 100 y6 - 100 y7 - 8.4e+06 z6&7.2 >= -8.36e+06
 id615: - 400 x6 + 400 x7 - 8.4e+06 z6&7.3 >= -8.2e+06
 id617: - 100 x6 + 100 x7 - 200 y6 + 200 y7 - 8.4e+06 z6&7.4 >= -8.25e+06
 id619: - 500 y6 + 500 y7 - 8.4e+06 z6&7.5 >= -8.1e+06
 id621: 200 x6 - 200 x7 - 100 y6 + 100 y7 - 8.4e+06 z6&7.6 >= -8.3e+06
 id623: 400 x6 - 400 x7 - 8.4e+06 z6&7.7 >= -8.28e+06
 id624: z6&7.0 + z6&7.1 + z6&7.2 + z6&7.3 + z6&7.4 + z6&7.5 + z6&7.6
   + z6&7.7 = 1
 id626: 400 x6 - 400 x8 + 400 y6 - 400 y8 - 8.4e+06 z6&8.0 >= -8e+06
 id628: - 200 x6 + 200 x8 + 400 y6 - 400 y8 - 8.4e+06 z6&8.1 >= -8.18e+06
 id630: - 400 x6 + 400 x8 + 400 y6 - 400 y8 - 8.4e+06 z6&8.2 >= -8.16e+06
 id632: - 200 x6 + 200 x8 - 100 y6 + 100 y8 - 8.4e+06 z6&8.3 >= -8.31e+06
 id633: - 200 x6 + 200 x8 + 200 y6 - 200 y8 - 8.4e+06 z6&8.3 >= -8.34e+06
 id635: - 300 x6 + 300 x8 - 300 y6 + 300 y8 - 8.4e+06 z6&8.4 >= -8.13e+06
 id637: - 500 y6 + 500 y8 - 8.4e+06 z6&8.5 >= -8.1e+06
 id639: 100 x6 - 100 x8 - 200 y6 + 200 y8 - 8.4e+06 z6&8.6 >= -8.26e+06
 id641: 300 x6 - 300 x8 - 8.4e+06 z6&8.7 >= -8.28e+06
 id642: - 100 y6 + 100 y8 - 8.4e+06 z6&8.7 >= -8.38e+06
 id644: 100 x6 - 100 x8 - 200 y6 + 200 y8 - 8.4e+06 z6&8.8 >= -8.31e+06
 id646: 400 x6 - 400 x8 - 8.4e+06 z6&8.9 >= -8.12e+06
 id647: z6&8.0 + z6&8.1 + z6&8.2 + z6&8.3 + z6&8.4 + z6&8.5 + z6&8.6
   + z6&8.7 + z6&8.8 + z6&8.9 = 1
 id649: 500 x6 - 500 x9 + 500 y6 - 500 y9 - 8.4e+06 z6&9.0 >= -8.1e+06
 id651: - 200 x6 + 200 x9 + 200 y6 - 200 y9 - 8.4e+06 z6&9.1 >= -8.28e+06
 id653: - 300 x6 + 300 x9 - 8.4e+06 z6&9.2 >= -8.34e+06
 id654: - 100 x6 + 100 x9 + 100 y6 - 100 y9 - 8.4e+06 z6&9.2 >= -8.37e+06
 id656: - 600 x6 + 600 x9 - 8.4e+06 z6&9.3 >= -8.22e+06
 id658: - 500 y6 + 500 y9 - 8.4e+06 z6&9.4 >= -8.1e+06
 id660: 300 x6 - 300 x9 - 300 y6 + 300 y9 - 8.4e+06 z6&9.5 >= -8.16e+06
 id662: 400 x6 - 400 x9 - 8.4e+06 z6&9.6 >= -8.2e+06
 id663: z6&9.0 + z6&9.1 + z6&9.2 + z6&9.3 + z6&9.4 + z6&9.5 + z6&9.6 = 1
 id665: 200 x7 - 200 x8 + 200 y7 - 200 y8 - 8.4e+06 z7&8.0 >= -8.18e+06
 id667: 100 x7 - 100 x8 + 200 y7 - 200 y8 - 8.4e+06 z7&8.1 >= -8.23e+06
 id669: - 200 x7 + 200 x8 + 400 y7 - 400 y8 - 8.4e+06 z7&8.2 >= -8.18e+06
 id671: - 200 x7 + 200 x8 + 200 y7 - 200 y8 - 8.4e+06 z7&8.3 >= -8.28e+06
 id673: - 200 x7 + 200 x8 + 100 y7 - 100 y8 - 8.4e+06 z7&8.4 >= -8.31e+06
 id675: - 600 x7 + 600 x8 - 600 y7 + 600 y8 - 8.4e+06 z7&8.5 >= -8.22e+06
 id677: 100 x7 - 100 x8 - 200 y7 + 200 y8 - 8.4e+06 z7&8.6 >= -8.28e+06
 id679: 400 x7 - 400 x8 - 8.4e+06 z7&8.7 >= -8.24e+06
 id680: - 100 x7 + 100 x8 - 100 y7 + 100 y8 - 8.4e+06 z7&8.7 >= -8.44e+06
 id682: 100 x7 - 100 x8 - 200 y7 + 200 y8 - 8.4e+06 z7&8.8 >= -8.33e+06
 id684: 400 x7 - 400 x8 - 8.4e+06 z7&8.9 >= -8.12e+06
 id685: z7&8.0 + z7&8.1 + z7&8.2 + z7&8.3 + z7&8.4 + z7&8.5 + z7&8.6
   + z7&8.7 + z7&8.8 + z7&8.9 = 1
 id687: - 200 x7 + 200 x9 + 100 y7 - 100 y9 - 8.4e+06 z7&9.0 >= -8.34e+06
 id689: - 600 x7 + 600 x9 - 8.4e+06 z7&9.1 >= -8.34e+06
 id691: - 300 x7 + 300 x9 - 300 y7 + 300 y9 - 8.4e+06 z7&9.2 >= -8.31e+06
 id693: 300 x7 - 300 x9 - 300 y7 + 300 y9 - 8.4e+06 z7&9.3 >= -8.19e+06
 id695: 400 x7 - 400 x9 - 8.4e+06 z7&9.4 >= -8.2e+06
 id697: 300 x7 - 300 x9 + 300 y7 - 300 y9 - 8.4e+06 z7&9.5 >= -8.19e+06
 id699: 100 x7 - 100 x9 + 200 y7 - 200 y9 - 8.4e+06 z7&9.6 >= -8.28e+06
 id700: z7&9.0 + z7&9.1 + z7&9.2 + z7&9.3 + z7&9.4 + z7&9.5 + z7&9.6 = 1
 id702: 600 x8 - 600 x9 + 600 y8 - 600 y9 - 8.4e+06 z8&9.0 >= -8.04e+06
 id704: - 100 x8 + 100 x9 + 200 y8 - 200 y9 - 8.4e+06 z8&9.1 >= -8.28e+06
 id706: - 400 x8 + 400 x9 - 8.4e+06 z8&9.2 >= -8.32e+06
 id707: 100 x8 - 100 x9 + 100 y8 - 100 y9 - 8.4e+06 z8&9.2 >= -8.41e+06
 id709: - 100 x8 + 100 x9 + 200 y8 - 200 y9 - 8.4e+06 z8&9.3 >= -8.33e+06
 id711: - 600 x8 + 600 x9 - 8.4e+06 z8&9.4 >= -8.1e+06
 id713: - 200 x8 + 200 x9 - 200 y8 + 200 y9 - 8.4e+06 z8&9.5 >= -8.2e+06
 id715: 200 x8 - 200 x9 - 400 y8 + 400 y9 - 8.4e+06 z8&9.6 >= -8.18e+06
 id717: 500 x8 - 500 x9 - 500 y8 + 500 y9 - 8.4e+06 z8&9.7 >= -8.1e+06
 id718: z8&9.0 + z8&9.1 + z8&9.2 + z8&9.3 + z8&9.4 + z8&9.5 + z8&9.6
   + z8&9.7 = 1
Bounds
 x3 >= 200
 x4 >= 200
 x5 >= 100
 x6 >= 200
 x7 >= 200
 x8 >= 300
 y1 <= 700
 y2 <= 700
 y3 <= 500
 y4 <= 800
 y5 <= 800
 y6 <= 600
 y7 <= 700
 y8 <= 500
 y9 <= 600
 id20 = 1
 z1&2.0 <= 1
 z1&2.1 <= 1
 z1&2.2 <= 1
 z1&2.3 <= 1
 z1&2.4 <= 1
 z1&2.5 <= 1
 z1&2.6 <= 1
 z1&2.7 <= 1
 z1&3.0 <= 1
 z1&3.1 <= 1
 z1&3.2 <= 1
 z1&3.3 <= 1
 z1&3.4 <= 1
 z1&3.5 <= 1
 z1&3.6 <= 1
 z1&3.7 <= 1
 z1&3.8 <= 1
 z1&3.9 <= 1
 z1&4.0 <= 1
 z1&4.1 <= 1
 z1&4.2 <= 1
 z1&4.3 <= 1
 z1&4.4 <= 1
 z1&4.5 <= 1
 z1&4.6 <= 1
 z1&4.7 <= 1
 z1&4.8 <= 1
 z1&5.0 <= 1
 z1&5.1 <= 1
 z1&5.2 <= 1
 z1&5.3 <= 1
 z1&5.4 <= 1
 z1&5.5 <= 1
 z1&5.6 <= 1
 z1&5.7 <= 1
 z1&5.8 <= 1
 z1&6.0 <= 1
 z1&6.1 <= 1
 z1&6.2 <= 1
 z1&6.3 <= 1
 z1&6.4 <= 1
 z1&6.5 <= 1
 z1&6.6 <= 1
 z1&6.7 <= 1
 z1&7.0 <= 1
 z1&7.1 <= 1
 z1&7.2 <= 1
 z1&7.3 <= 1
 z1&7.4 <= 1
 z1&7.5 <= 1
 z1&7.6 <= 1
 z1&7.7 <= 1
 z1&7.8 <= 1
 z1&8.0 <= 1
 z1&8.1 <= 1
 z1&8.2 <= 1
 z1&8.3 <= 1
 z1&8.4 <= 1
 z1&8.5 <= 1
 z1&8.6 <= 1
 z1&8.7 <= 1
 z1&8.8 <= 1
 z1&8.9 <= 1
 z1&8.10 <= 1
 z1&8.11 <= 1
 z1&8.12 <= 1
 z1&9.0 <= 1
 z1&9.1 <= 1
 z1&9.2 <= 1
 z1&9.3 <= 1
 z1&9.4 <= 1
 z1&9.5 <= 1
 z1&9.6 <= 1
 z2&3.0 <= 1
 z2&3.1 <= 1
 z2&3.2 <= 1
 z2&3.3 <= 1
 z2&3.4 <= 1
 z2&3.5 <= 1
 z2&3.6 <= 1
 z2&3.7 <= 1
 z2&4.0 <= 1
 z2&4.1 <= 1
 z2&4.2 <= 1
 z2&4.3 <= 1
 z2&4.4 <= 1
 z2&4.5 <= 1
 z2&4.6 <= 1
 z2&4.7 <= 1
 z2&5.0 <= 1
 z2&5.1 <= 1
 z2&5.2 <= 1
 z2&5.3 <= 1
 z2&5.4 <= 1
 z2&5.5 <= 1
 z2&5.6 <= 1
 z2&5.7 <= 1
 z2&5.8 <= 1
 z2&5.9 <= 1
 z2&6.0 <= 1
 z2&6.1 <= 1
 z2&6.2 <= 1
 z2&6.3 <= 1
 z2&6.4 <= 1
 z2&6.5 <= 1
 z2&6.6 <= 1
 z2&6.7 <= 1
 z2&7.0 <= 1
 z2&7.1 <= 1
 z2&7.2 <= 1
 z2&7.3 <= 1
 z2&7.4 <= 1
 z2&7.5 <= 1
 z2&7.6 <= 1
 z2&7.7 <= 1
 z2&8.0 <= 1
 z2&8.1 <= 1
 z2&8.2 <= 1
 z2&8.3 <= 1
 z2&8.4 <= 1
 z2&8.5 <= 1
 z2&8.6 <= 1
 z2&8.7 <= 1
 z2&8.8 <= 1
 z2&8.9 <= 1
 z2&8.10 <= 1
 z2&9.0 <= 1
 z2&9.1 <= 1
 z2&9.2 <= 1
 z2&9.3 <= 1
 z2&9.4 <= 1
 z2&9.5 <= 1
 z3&4.0 <= 1
 z3&4.1 <= 1
 z3&4.2 <= 1
 z3&4.3 <= 1
 z3&4.4 <= 1
 z3&4.5 <= 1
 z3&4.6 <= 1
 z3&5.0 <= 1
 z3&5.1 <= 1
 z3&5.2 <= 1
 z3&5.3 <= 1
 z3&5.4 <= 1
 z3&5.5 <= 1
 z3&5.6 <= 1
 z3&6.0 <= 1
 z3&6.1 <= 1
 z3&6.2 <= 1
 z3&6.3 <= 1
 z3&6.4 <= 1
 z3&6.5 <= 1
 z3&6.6 <= 1
 z3&7.0 <= 1
 z3&7.1 <= 1
 z3&7.2 <= 1
 z3&7.3 <= 1
 z3&7.4 <= 1
 z3&7.5 <= 1
 z3&7.6 <= 1
 z3&8.0 <= 1
 z3&8.1 <= 1
 z3&8.2 <= 1
 z3&8.3 <= 1
 z3&8.4 <= 1
 z3&8.5 <= 1
 z3&8.6 <= 1
 z3&8.7 <= 1
 z3&8.8 <= 1
 z3&9.0 <= 1
 z3&9.1 <= 1
 z3&9.2 <= 1
 z3&9.3 <= 1
 z3&9.4 <= 1
 z3&9.5 <= 1
 z4&5.0 <= 1
 z4&5.1 <= 1
 z4&5.2 <= 1
 z4&5.3 <= 1
 z4&5.4 <= 1
 z4&5.5 <= 1
 z4&5.6 <= 1
 z4&5.7 <= 1
 z4&5.8 <= 1
 z4&6.0 <= 1
 z4&6.1 <= 1
 z4&6.2 <= 1
 z4&6.3 <= 1
 z4&6.4 <= 1
 z4&6.5 <= 1
 z4&6.6 <= 1
 z4&6.7 <= 1
 z4&6.8 <= 1
 z4&6.9 <= 1
 z4&7.0 <= 1
 z4&7.1 <= 1
 z4&7.2 <= 1
 z4&7.3 <= 1
 z4&7.4 <= 1
 z4&7.5 <= 1
 z4&8.0 <= 1
 z4&8.1 <= 1
 z4&8.2 <= 1
 z4&8.3 <= 1
 z4&8.4 <= 1
 z4&8.5 <= 1
 z4&8.6 <= 1
 z4&8.7 <= 1
 z4&8.8 <= 1
 z4&8.9 <= 1
 z4&9.0 <= 1
 z4&9.1 <= 1
 z4&9.2 <= 1
 z4&9.3 <= 1
 z4&9.4 <= 1
 z4&9.5 <= 1
 z5&6.0 <= 1
 z5&6.1 <= 1
 z5&6.2 <= 1
 z5&6.3 <= 1
 z5&6.4 <= 1
 z5&6.5 <= 1
 z5&6.6 <= 1
 z5&6.7 <= 1
 z5&6.8 <= 1
 z5&7.0 <= 1
 z5&7.1 <= 1
 z5&7.2 <= 1
 z5&7.3 <= 1
 z5&7.4 <= 1
 z5&7.5 <= 1
 z5&7.6 <= 1
 z5&7.7 <= 1
 z5&7.8 <= 1
 z5&8.0 <= 1
 z5&8.1 <= 1
 z5&8.2 <= 1
 z5&8.3 <= 1
 z5&8.4 <= 1
 z5&8.5 <= 1
 z5&8.6 <= 1
 z5&8.7 <= 1
 z5&8.8 <= 1
 z5&8.9 <= 1
 z5&8.10 <= 1
 z5&9.0 <= 1
 z5&9.1 <= 1
 z5&9.2 <= 1
 z5&9.3 <= 1
 z5&9.4 <= 1
 z5&9.5 <= 1
 z5&9.6 <= 1
 z6&7.0 <= 1
 z6&7.1 <= 1
 z6&7.2 <= 1
 z6&7.3 <= 1
 z6&7.4 <= 1
 z6&7.5 <= 1
 z6&7.6 <= 1
 z6&7.7 <= 1
 z6&8.0 <= 1
 z6&8.1 <= 1
 z6&8.2 <= 1
 z6&8.3 <= 1
 z6&8.4 <= 1
 z6&8.5 <= 1
 z6&8.6 <= 1
 z6&8.7 <= 1
 z6&8.8 <= 1
 z6&8.9 <= 1
 z6&9.0 <= 1
 z6&9.1 <= 1
 z6&9.2 <= 1
 z6&9.3 <= 1
 z6&9.4 <= 1
 z6&9.5 <= 1
 z6&9.6 <= 1
 z7&8.0 <= 1
 z7&8.1 <= 1
 z7&8.2 <= 1
 z7&8.3 <= 1
 z7&8.4 <= 1
 z7&8.5 <= 1
 z7&8.6 <= 1
 z7&8.7 <= 1
 z7&8.8 <= 1
 z7&8.9 <= 1
 z7&9.0 <= 1
 z7&9.1 <= 1
 z7&9.2 <= 1
 z7&9.3 <= 1
 z7&9.4 <= 1
 z7&9.5 <= 1
 z7&9.6 <= 1
 z8&9.0 <= 1
 z8&9.1 <= 1
 z8&9.2 <= 1
 z8&9.3 <= 1
 z8&9.4 <= 1
 z8&9.5 <= 1
 z8&9.6 <= 1
 z8&9.7 <= 1
Generals
 z1&2.0 z1&2.1 z1&2.2 z1&2.3 z1&2.4 z1&2.5 z1&2.6 z1&2.7 z1&3.0 z1&3.1
 z1&3.2 z1&3.3 z1&3.4 z1&3.5 z1&3.6 z1&3.7 z1&3.8 z1&3.9 z1&4.0 z1&4.1
 z1&4.2 z1&4.3 z1&4.4 z1&4.5 z1&4.6 z1&4.7 z1&4.8 z1&5.0 z1&5.1 z1&5.2
 z1&5.3 z1&5.4 z1&5.5 z1&5.6 z1&5.7 z1&5.8 z1&6.0 z1&6.1 z1&6.2 z1&6.3
 z1&6.4 z1&6.5 z1&6.6 z1&6.7 z1&7.0 z1&7.1 z1&7.2 z1&7.3 z1&7.4 z1&7.5
 z1&7.6 z1&7.7 z1&7.8 z1&8.0 z1&8.1 z1&8.2 z1&8.3 z1&8.4 z1&8.5 z1&8.6
 z1&8.7 z1&8.8 z1&8.9 z1&8.10 z1&8.11 z1&8.12 z1&9.0 z1&9.1 z1&9.2 z1&9.3
 z1&9.4 z1&9.5 z1&9.6 z2&3.0 z2&3.1 z2&3.2 z2&3.3 z2&3.4 z2&3.5 z2&3.6
 z2&3.7 z2&4.0 z2&4.1 z2&4.2 z2&4.3 z2&4.4 z2&4.5 z2&4.6 z2&4.7 z2&5.0
 z2&5.1 z2&5.2 z2&5.3 z2&5.4 z2&5.5 z2&5.6 z2&5.7 z2&5.8 z2&5.9 z2&6.0
 z2&6.1 z2&6.2 z2&6.3 z2&6.4 z2&6.5 z2&6.6 z2&6.7 z2&7.0 z2&7.1 z2&7.2
 z2&7.3 z2&7.4 z2&7.5 z2&7.6 z2&7.7 z2&8.0 z2&8.1 z2&8.2 z2&8.3 z2&8.4
 z2&8.5 z2&8.6 z2&8.7 z2&8.8 z2&8.9 z2&8.10 z2&9.0 z2&9.1 z2&9.2 z2&9.3
 z2&9.4 z2&9.5 z3&4.0 z3&4.1 z3&4.2 z3&4.3 z3&4.4 z3&4.5 z3&4.6 z3&5.0
 z3&5.1 z3&5.2 z3&5.3 z3&5.4 z3&5.5 z3&5.6 z3&6.0 z3&6.1 z3&6.2 z3&6.3
 z3&6.4 z3&6.5 z3&6.6 z3&7.0 z3&7.1 z3&7.2 z3&7.3 z3&7.4 z3&7.5 z3&7.6
 z3&8.0 z3&8.1 z3&8.2 z3&8.3 z3&8.4 z3&8.5 z3&8.6 z3&8.7 z3&8.8 z3&9.0
 z3&9.1 z3&9.2 z3&9.3 z3&9.4 z3&9.5 z4&5.0 z4&5.1 z4&5.2 z4&5.3 z4&5.4
 z4&5.5 z4&5.6 z4&5.7 z4&5.8 z4&6.0 z4&6.1 z4&6.2 z4&6.3 z4&6.4 z4&6.5
 z4&6.6 z4&6.7 z4&6.8 z4&6.9 z4&7.0 z4&7.1 z4&7.2 z4&7.3 z4&7.4 z4&7.5
 z4&8.0 z4&8.1 z4&8.2 z4&8.3 z4&8.4 z4&8.5 z4&8.6 z4&8.7 z4&8.8 z4&8.9
 z4&9.0 z4&9.1 z4&9.2 z4&9.3 z4&9.4 z4&9.5 z5&6.0 z5&6.1 z5&6.2 z5&6.3
 z5&6.4 z5&6.5 z5&6.6 z5&6.7 z5&6.8 z5&7.0 z5&7.1 z5&7.2 z5&7.3 z5&7.4
 z5&7.5 z5&7.6 z5&7.7 z5&7.8 z5&8.0 z5&8.1 z5&8.2 z5&8.3 z5&8.4 z5&8.5
 z5&8.6 z5&8.7 z5&8.8 z5&8.9 z5&8.10 z5&9.0 z5&9.1 z5&9.2 z5&9.3 z5&9.4
 z5&9.5 z5&9.6 z6&7.0 z6&7.1 z6&7.2 z6&7.3 z6&7.4 z6&7.5 z6&7.6 z6&7.7
 z6&8.0 z6&8.1 z6&8.2 z6&8.3 z6&8.4 z6&8.5 z6&8.6 z6&8.7 z6&8.8 z6&8.9
 z6&9.0 z6&9.1 z6&9.2 z6&9.3 z6&9.4 z6&9.5 z6&9.6 z7&8.0 z7&8.1 z7&8.2
 z7&8.3 z7&8.4 z7&8.5 z7&8.6 z7&8.7 z7&8.8 z7&8.9 z7&9.0 z7&9.1 z7&9.2
 z7&9.3 z7&9.4 z7&9.5 z7&9.6 z8&9.0 z8&9.1 z8&9.2 z8&9.3 z8&9.4 z8&9.5
 z8&9.6 z8&9.7
End
